results_rootrelaxation/bin012_090_044.srr.sol
solution status: optimal solution found
objective value:                                   31
_var243_                                          0.5 	(obj:4)
_var717_                                            1 	(obj:1)
_var729_                                          0.5 	(obj:3)
_var755_                                          0.5 	(obj:3)
_var757_                                          0.5 	(obj:1)
_var765_                                          0.5 	(obj:4)
_var777_                                          0.5 	(obj:3)
_var782_                                          0.5 	(obj:4)
_var797_                                          0.5 	(obj:3)
_var803_                                          0.5 	(obj:4)
_var807_                                          0.5 	(obj:3)
_var824_                                          0.5 	(obj:4)
_var834_                                          0.5 	(obj:1)
_var836_                                          0.5 	(obj:3)
_var841_                                          0.5 	(obj:2)
_var873_                                          0.5 	(obj:4)
_var877_                                          0.5 	(obj:1)
_var888_                                          0.5 	(obj:2)
_var901_                                          0.5 	(obj:4)
_var908_                                          0.5 	(obj:4)
_var915_                                          0.5 	(obj:3)
